* ENCODING=ISO-8859-1
NAME          CPLEX
ROWS
 N  obj1    
 G  c1      
 G  c2      
 G  c3      
 G  c4      
 G  c5      
 G  c6      
 G  c7      
 G  c8      
 G  c9      
 G  c10     
 G  c11     
 G  c12     
 G  c13     
 G  c14     
 G  c15     
 G  c16     
 G  c17     
 G  c18     
 G  c19     
 G  c20     
 G  c21     
 G  c22     
 G  c23     
 G  c24     
 G  c25     
 G  c26     
 G  c27     
 G  c28     
 G  c29     
 G  c30     
 G  c31     
 G  c32     
 G  c33     
 G  c34     
 G  c35     
 G  c36     
 G  c37     
 G  c38     
 G  c39     
 G  c40     
 G  c41     
 G  c42     
 G  c43     
 G  c44     
 G  c45     
 G  c46     
 G  c47     
 G  c48     
 G  c49     
 G  c50     
COLUMNS
    MARK0000  'MARKER'                 'INTORG'
    x1        obj1                            1
    x1        c15                           733
    x1        c19                           211
    x1        c21                           279
    x1        c36                           724
    x1        c44                           239
    x1        c46                           739
    x2        obj1                            1
    x2        c11                           558
    x2        c35                           995
    x3        obj1                            1
    x3        c12                           322
    x3        c34                           275
    x3        c37                           131
    x3        c48                           112
    x3        c49                           310
    x3        c50                           878
    x4        obj1                            1
    x4        c6                            322
    x4        c14                           435
    x4        c18                           986
    x4        c20                           416
    x5        obj1                            1
    x5        c20                           750
    x5        c21                           689
    x5        c25                           564
    x5        c31                           181
    x5        c37                           824
    x6        obj1                            1
    x6        c2                            537
    x6        c10                           888
    x6        c11                           215
    x6        c12                           781
    x6        c16                           106
    x6        c21                           816
    x6        c23                           964
    x6        c24                           283
    x6        c29                           616
    x6        c31                           261
    x6        c38                           644
    x6        c45                           544
    x7        obj1                            1
    x7        c13                           284
    x7        c19                           905
    x7        c21                           758
    x7        c43                           617
    x7        c45                           241
    x7        c48                           789
    x8        obj1                            1
    x8        c9                            172
    x8        c10                           137
    x8        c19                           455
    x8        c26                           249
    x8        c27                           723
    x8        c37                           167
    x8        c38                           829
    x8        c40                           891
    x8        c42                           538
    x8        c45                           955
    x9        obj1                            1
    x9        c7                            626
    x9        c15                           424
    x9        c31                           858
    x10       obj1                            1
    x10       c2                            405
    x10       c18                           565
    x10       c26                           186
    x10       c40                           611
    x11       obj1                            1
    x11       c7                            262
    x11       c28                           250
    x11       c35                           234
    x12       obj1                            1
    x12       c6                            839
    x12       c28                           954
    x12       c41                           810
    x13       obj1                            1
    x13       c3                            204
    x13       c28                           123
    x13       c39                           262
    x13       c41                           358
    x14       obj1                            1
    x14       c3                            759
    x14       c16                           117
    x14       c29                           414
    x14       c38                           554
    x14       c47                           858
    x14       c50                           335
    x15       obj1                            1
    x15       c5                            631
    x15       c14                           718
    x15       c29                           852
    x16       obj1                            1
    x16       c14                           259
    x16       c49                           141
    x17       obj1                            1
    x17       c33                           492
    x17       c35                           510
    x17       c38                           373
    x17       c42                           419
    x17       c43                           993
    x17       c44                           264
    x17       c45                           900
    x17       c47                           577
    x18       obj1                            1
    x18       c14                           249
    x18       c17                           467
    x18       c26                           174
    x18       c46                           472
    x19       obj1                            1
    x19       c9                            297
    x19       c12                           216
    x19       c37                           730
    x19       c46                           861
    x20       obj1                            1
    x20       c2                            854
    x20       c4                            312
    x20       c21                           854
    x20       c25                           921
    x20       c36                           140
    x20       c40                           238
    x21       obj1                            1
    x21       c9                            618
    x21       c19                           417
    x21       c22                           592
    x21       c27                           728
    x21       c30                           407
    x21       c40                           359
    x21       c42                           859
    x21       c47                           582
    x21       c49                           808
    x22       obj1                            1
    x22       c6                            640
    x22       c14                           391
    x22       c17                           449
    x22       c20                           458
    x22       c38                           408
    x22       c46                           540
    x22       c47                           116
    x22       c50                           431
    x23       obj1                            1
    x23       c2                            169
    x23       c6                            392
    x23       c9                            132
    x23       c29                           166
    x23       c33                           515
    x24       obj1                            1
    x24       c1                            277
    x24       c8                            210
    x24       c15                           235
    x24       c24                           889
    x25       obj1                            1
    x25       c11                           135
    x25       c20                           668
    x25       c24                           369
    x25       c47                           437
    x26       obj1                            1
    x26       c15                           525
    x26       c32                           625
    x26       c35                           217
    x26       c43                           983
    x26       c44                           563
    x26       c46                           137
    x26       c49                           981
    x27       obj1                            1
    x27       c1                            915
    x27       c6                            854
    x27       c30                           897
    x27       c34                           145
    x27       c35                           230
    x27       c40                           369
    x27       c41                           937
    x27       c42                           902
    x27       c48                           431
    x28       obj1                            1
    x28       c7                            284
    x28       c18                           340
    x28       c35                           795
    x29       obj1                            1
    x29       c13                           521
    x29       c14                           906
    x29       c28                           814
    x29       c39                           200
    x29       c42                           595
    x29       c46                           967
    x30       obj1                            1
    x30       c13                           986
    x30       c23                           744
    x30       c24                           535
    x30       c30                           955
    x30       c35                           174
    x30       c47                           978
    x31       obj1                            1
    x31       c3                            565
    x31       c9                            943
    x31       c13                           186
    x31       c33                           457
    x31       c48                           602
    x31       c49                           731
    x32       obj1                            1
    x32       c1                            102
    x32       c7                            869
    x32       c22                           880
    x32       c25                           596
    x32       c44                           710
    x33       obj1                            1
    x33       c3                            872
    x33       c5                            705
    x33       c8                            435
    x33       c16                           150
    x33       c23                           683
    x33       c24                           662
    x33       c27                           173
    x33       c41                           614
    x34       obj1                            1
    x34       c7                            171
    x34       c16                           215
    x34       c22                           339
    x35       obj1                            1
    x35       c6                            995
    x35       c11                           654
    x35       c15                           215
    x35       c32                           210
    x36       obj1                            1
    x36       c10                           586
    x36       c15                           859
    x36       c27                           308
    x36       c41                           736
    x36       c44                           554
    x37       obj1                            1
    x37       c22                           521
    x37       c40                           746
    x37       c43                           579
    x38       obj1                            1
    x38       c5                            770
    x38       c19                           315
    x38       c36                           591
    x39       obj1                            1
    x39       c3                            663
    x39       c17                           848
    x39       c23                           964
    x39       c25                           269
    x39       c32                           561
    x39       c34                           685
    x39       c44                           504
    x39       c49                           584
    x40       obj1                            1
    x40       c5                            107
    x40       c6                            592
    x40       c16                           928
    x40       c20                           504
    x40       c46                           364
    x41       obj1                            1
    x41       c28                           440
    x42       obj1                            1
    x42       c8                            117
    x42       c13                           798
    x42       c18                           808
    x42       c21                           409
    x42       c32                           277
    x42       c42                           560
    x42       c48                           438
    x43       obj1                            1
    x43       c4                            732
    x43       c13                           200
    x43       c16                           495
    x43       c39                           518
    x43       c40                           950
    x44       obj1                            1
    x44       c10                           250
    x44       c23                           120
    x44       c28                           411
    x45       obj1                            1
    x45       c3                            350
    x45       c7                            487
    x45       c8                            590
    x45       c18                           200
    x45       c24                           547
    x45       c31                           806
    x46       obj1                            1
    x46       c24                           312
    x46       c36                           469
    x46       c38                           791
    x46       c44                           359
    x47       obj1                            1
    x47       c25                           710
    x47       c34                           444
    x47       c39                           988
    x48       obj1                            1
    x48       c34                           484
    x48       c36                           646
    x48       c41                           195
    x48       c49                           377
    x49       obj1                            1
    x49       c4                            474
    x49       c14                           196
    x49       c20                           483
    x49       c29                           171
    x49       c33                           480
    x49       c48                           593
    x50       obj1                            1
    x50       c7                            725
    x50       c9                            796
    x50       c15                           811
    x50       c39                           405
    x50       c41                           214
    MARK0001  'MARKER'                 'INTEND'
RHS
    rhs       c1                            647
    rhs       c2                            983
    rhs       c3                           1707
    rhs       c4                            759
    rhs       c5                           1107
    rhs       c6                           2317
    rhs       c7                           1712
    rhs       c8                            676
    rhs       c9                           1479
    rhs       c10                           931
    rhs       c11                           781
    rhs       c12                           660
    rhs       c13                          1488
    rhs       c14                          1577
    rhs       c15                          1901
    rhs       c16                          1006
    rhs       c17                           882
    rhs       c18                          1450
    rhs       c19                          1152
    rhs       c20                          1640
    rhs       c21                          1903
    rhs       c22                          1166
    rhs       c23                          1738
    rhs       c24                          1799
    rhs       c25                          1530
    rhs       c26                           305
    rhs       c27                           966
    rhs       c28                          1496
    rhs       c29                          1110
    rhs       c30                          1130
    rhs       c31                          1053
    rhs       c32                           837
    rhs       c33                           972
    rhs       c34                          1017
    rhs       c35                          1578
    rhs       c36                          1285
    rhs       c37                           926
    rhs       c38                          1800
    rhs       c39                          1187
    rhs       c40                          2082
    rhs       c41                          1932
    rhs       c42                          1937
    rhs       c43                          1586
    rhs       c44                          1597
    rhs       c45                          1320
    rhs       c46                          2040
    rhs       c47                          1774
    rhs       c48                          1483
    rhs       c49                          1966
    rhs       c50                           822
BOUNDS
 LI bnd       x1        0
 LI bnd       x2        0
 LI bnd       x3        0
 LI bnd       x4        0
 LI bnd       x5        0
 LI bnd       x6        0
 LI bnd       x7        0
 LI bnd       x8        0
 LI bnd       x9        0
 LI bnd       x10       0
 LI bnd       x11       0
 LI bnd       x12       0
 LI bnd       x13       0
 LI bnd       x14       0
 LI bnd       x15       0
 LI bnd       x16       0
 LI bnd       x17       0
 LI bnd       x18       0
 LI bnd       x19       0
 LI bnd       x20       0
 LI bnd       x21       0
 LI bnd       x22       0
 LI bnd       x23       0
 LI bnd       x24       0
 LI bnd       x25       0
 LI bnd       x26       0
 LI bnd       x27       0
 LI bnd       x28       0
 LI bnd       x29       0
 LI bnd       x30       0
 LI bnd       x31       0
 LI bnd       x32       0
 LI bnd       x33       0
 LI bnd       x34       0
 LI bnd       x35       0
 LI bnd       x36       0
 LI bnd       x37       0
 LI bnd       x38       0
 LI bnd       x39       0
 LI bnd       x40       0
 LI bnd       x41       0
 LI bnd       x42       0
 LI bnd       x43       0
 LI bnd       x44       0
 LI bnd       x45       0
 LI bnd       x46       0
 LI bnd       x47       0
 LI bnd       x48       0
 LI bnd       x49       0
 LI bnd       x50       0
ENDATA
